c Reduced graph for r20 generated by Cyril Grelier
p edge 217 2447
e 1 5
e 1 10
e 1 31
e 1 39
e 1 45
e 1 83
e 1 104
e 1 115
e 1 119
e 1 137
e 1 142
e 1 152
e 1 155
e 1 165
e 1 174
e 1 187
e 1 190
e 1 202
e 1 205
e 1 208
e 1 211
e 2 21
e 2 22
e 2 32
e 2 34
e 2 36
e 2 44
e 2 50
e 2 52
e 2 73
e 2 75
e 2 84
e 2 92
e 2 95
e 2 98
e 2 109
e 2 132
e 2 146
e 2 167
e 2 174
e 2 175
e 2 176
e 2 182
e 2 198
e 2 205
e 3 9
e 3 12
e 3 16
e 3 24
e 3 43
e 3 48
e 3 93
e 3 96
e 3 103
e 3 114
e 3 117
e 3 118
e 3 123
e 3 131
e 3 141
e 3 147
e 3 151
e 3 152
e 3 169
e 3 175
e 3 183
e 3 188
e 3 198
e 3 216
e 4 14
e 4 18
e 4 25
e 4 47
e 4 52
e 4 60
e 4 64
e 4 78
e 4 82
e 4 93
e 4 100
e 4 113
e 4 126
e 4 141
e 4 143
e 4 150
e 4 160
e 4 164
e 4 192
e 4 193
e 4 195
e 4 204
e 5 6
e 5 10
e 5 39
e 5 57
e 5 66
e 5 68
e 5 75
e 5 83
e 5 85
e 5 88
e 5 119
e 5 120
e 5 127
e 5 133
e 5 142
e 5 155
e 5 164
e 5 165
e 5 174
e 5 190
e 5 211
e 5 213
e 6 57
e 6 65
e 6 66
e 6 68
e 6 73
e 6 75
e 6 85
e 6 88
e 6 110
e 6 120
e 6 121
e 6 127
e 6 133
e 6 140
e 6 143
e 6 151
e 6 162
e 6 164
e 6 170
e 6 186
e 6 213
e 6 217
e 7 30
e 7 35
e 7 39
e 7 58
e 7 72
e 7 76
e 7 81
e 7 84
e 7 90
e 7 92
e 7 102
e 7 116
e 7 134
e 7 147
e 7 162
e 7 163
e 7 166
e 7 178
e 7 180
e 7 201
e 7 202
e 7 206
e 8 14
e 8 15
e 8 27
e 8 40
e 8 66
e 8 80
e 8 117
e 8 135
e 8 148
e 8 153
e 8 154
e 8 160
e 8 165
e 8 168
e 8 169
e 8 177
e 8 181
e 8 182
e 8 185
e 8 187
e 8 197
e 8 200
e 8 207
e 8 210
e 9 19
e 9 24
e 9 72
e 9 87
e 9 96
e 9 103
e 9 114
e 9 128
e 9 138
e 9 141
e 9 142
e 9 147
e 9 152
e 9 156
e 9 169
e 9 175
e 9 176
e 9 188
e 9 194
e 9 199
e 10 37
e 10 39
e 10 61
e 10 64
e 10 65
e 10 76
e 10 83
e 10 101
e 10 119
e 10 142
e 10 155
e 10 165
e 10 174
e 10 179
e 10 190
e 10 211
e 11 26
e 11 31
e 11 55
e 11 59
e 11 63
e 11 74
e 11 81
e 11 82
e 11 83
e 11 87
e 11 88
e 11 97
e 11 106
e 11 108
e 11 110
e 11 116
e 11 122
e 11 131
e 11 150
e 11 159
e 11 167
e 11 171
e 11 181
e 11 196
e 11 200
e 12 16
e 12 43
e 12 48
e 12 57
e 12 71
e 12 86
e 12 93
e 12 99
e 12 101
e 12 117
e 12 118
e 12 123
e 12 124
e 12 131
e 12 137
e 12 151
e 12 159
e 12 168
e 12 183
e 12 198
e 12 199
e 12 201
e 12 204
e 12 216
e 13 19
e 13 27
e 13 28
e 13 38
e 13 41
e 13 50
e 13 67
e 13 69
e 13 77
e 13 118
e 13 120
e 13 129
e 13 144
e 13 161
e 13 171
e 13 178
e 13 184
e 13 190
e 13 191
e 13 192
e 13 203
e 13 215
e 14 15
e 14 40
e 14 47
e 14 60
e 14 64
e 14 78
e 14 80
e 14 93
e 14 100
e 14 148
e 14 150
e 14 154
e 14 164
e 14 165
e 14 168
e 14 169
e 14 177
e 14 181
e 14 182
e 14 207
e 15 40
e 15 46
e 15 48
e 15 53
e 15 58
e 15 80
e 15 104
e 15 130
e 15 148
e 15 154
e 15 165
e 15 168
e 15 169
e 15 177
e 15 179
e 15 181
e 15 182
e 15 184
e 15 207
e 15 213
e 16 37
e 16 43
e 16 48
e 16 56
e 16 69
e 16 91
e 16 93
e 16 111
e 16 113
e 16 117
e 16 118
e 16 123
e 16 131
e 16 133
e 16 138
e 16 151
e 16 154
e 16 173
e 16 183
e 16 198
e 16 209
e 16 216
e 17 23
e 17 49
e 17 51
e 17 53
e 17 63
e 17 74
e 17 78
e 17 91
e 17 107
e 17 112
e 17 132
e 17 136
e 17 140
e 17 157
e 17 161
e 17 163
e 17 166
e 17 172
e 17 183
e 17 194
e 17 195
e 17 197
e 17 203
e 17 211
e 18 25
e 18 29
e 18 43
e 18 51
e 18 52
e 18 54
e 18 77
e 18 80
e 18 82
e 18 89
e 18 106
e 18 113
e 18 126
e 18 127
e 18 139
e 18 141
e 18 143
e 18 145
e 18 146
e 18 160
e 18 192
e 18 193
e 18 195
e 18 204
e 18 208
e 19 28
e 19 67
e 19 72
e 19 87
e 19 118
e 19 120
e 19 128
e 19 138
e 19 142
e 19 144
e 19 156
e 19 171
e 19 176
e 19 178
e 19 191
e 19 192
e 19 194
e 19 199
e 19 203
e 20 22
e 20 24
e 20 28
e 20 29
e 20 45
e 20 94
e 20 95
e 20 99
e 20 129
e 20 130
e 20 135
e 20 148
e 20 155
e 20 156
e 20 158
e 20 170
e 20 193
e 20 196
e 20 206
e 20 209
e 20 216
e 21 22
e 21 30
e 21 34
e 21 42
e 21 44
e 21 47
e 21 50
e 21 52
e 21 67
e 21 70
e 21 75
e 21 92
e 21 94
e 21 98
e 21 108
e 21 132
e 21 139
e 21 167
e 21 176
e 21 182
e 21 186
e 21 188
e 21 198
e 21 205
e 22 24
e 22 28
e 22 29
e 22 34
e 22 44
e 22 50
e 22 52
e 22 75
e 22 92
e 22 98
e 22 99
e 22 130
e 22 132
e 22 135
e 22 155
e 22 158
e 22 167
e 22 170
e 22 176
e 22 182
e 22 198
e 22 205
e 22 209
e 23 60
e 23 63
e 23 71
e 23 96
e 23 98
e 23 107
e 23 119
e 23 136
e 23 161
e 23 166
e 23 172
e 23 183
e 23 189
e 23 194
e 23 195
e 23 210
e 23 212
e 23 217
e 24 28
e 24 29
e 24 96
e 24 99
e 24 103
e 24 114
e 24 130
e 24 135
e 24 141
e 24 147
e 24 152
e 24 155
e 24 158
e 24 169
e 24 170
e 24 175
e 24 188
e 24 209
e 25 32
e 25 38
e 25 49
e 25 52
e 25 59
e 25 62
e 25 70
e 25 82
e 25 85
e 25 102
e 25 113
e 25 126
e 25 128
e 25 141
e 25 143
e 25 158
e 25 160
e 25 177
e 25 192
e 25 193
e 25 195
e 25 204
e 25 212
e 25 214
e 26 31
e 26 35
e 26 55
e 26 74
e 26 79
e 26 81
e 26 82
e 26 87
e 26 88
e 26 97
e 26 100
e 26 108
e 26 111
e 26 114
e 26 121
e 26 124
e 26 125
e 26 131
e 26 145
e 26 172
e 26 181
e 26 185
e 27 38
e 27 41
e 27 50
e 27 66
e 27 69
e 27 77
e 27 117
e 27 129
e 27 135
e 27 153
e 27 160
e 27 161
e 27 184
e 27 185
e 27 187
e 27 190
e 27 197
e 27 200
e 27 210
e 27 215
e 28 29
e 28 67
e 28 99
e 28 118
e 28 120
e 28 130
e 28 135
e 28 144
e 28 155
e 28 158
e 28 170
e 28 171
e 28 178
e 28 191
e 28 192
e 28 203
e 28 209
e 29 43
e 29 51
e 29 54
e 29 77
e 29 80
e 29 89
e 29 99
e 29 106
e 29 127
e 29 130
e 29 135
e 29 139
e 29 145
e 29 146
e 29 155
e 29 158
e 29 170
e 29 208
e 29 209
e 30 35
e 30 42
e 30 47
e 30 67
e 30 70
e 30 72
e 30 76
e 30 84
e 30 90
e 30 94
e 30 108
e 30 116
e 30 139
e 30 163
e 30 180
e 30 186
e 30 188
e 30 202
e 31 45
e 31 55
e 31 74
e 31 81
e 31 82
e 31 87
e 31 88
e 31 97
e 31 104
e 31 108
e 31 115
e 31 131
e 31 137
e 31 152
e 31 181
e 31 187
e 31 202
e 31 205
e 31 208
e 32 36
e 32 38
e 32 49
e 32 59
e 32 62
e 32 70
e 32 73
e 32 84
e 32 85
e 32 95
e 32 102
e 32 109
e 32 128
e 32 146
e 32 158
e 32 174
e 32 175
e 32 177
e 32 212
e 32 214
e 33 34
e 33 36
e 33 42
e 33 46
e 33 56
e 33 68
e 33 79
e 33 89
e 33 90
e 33 97
e 33 103
e 33 107
e 33 112
e 33 126
e 33 134
e 33 144
e 33 149
e 33 153
e 33 189
e 33 207
e 33 214
e 33 215
e 34 44
e 34 46
e 34 50
e 34 52
e 34 56
e 34 75
e 34 89
e 34 90
e 34 92
e 34 97
e 34 98
e 34 103
e 34 107
e 34 132
e 34 144
e 34 153
e 34 167
e 34 176
e 34 182
e 34 198
e 34 205
e 34 214
e 35 72
e 35 76
e 35 79
e 35 84
e 35 90
e 35 100
e 35 111
e 35 114
e 35 116
e 35 121
e 35 124
e 35 125
e 35 145
e 35 163
e 35 172
e 35 180
e 35 185
e 35 202
e 36 42
e 36 68
e 36 73
e 36 79
e 36 84
e 36 95
e 36 109
e 36 112
e 36 126
e 36 134
e 36 146
e 36 149
e 36 174
e 36 175
e 36 189
e 36 207
e 36 215
e 37 56
e 37 61
e 37 64
e 37 65
e 37 69
e 37 76
e 37 91
e 37 101
e 37 111
e 37 113
e 37 133
e 37 138
e 37 154
e 37 173
e 37 179
e 37 209
e 38 41
e 38 49
e 38 50
e 38 59
e 38 62
e 38 69
e 38 70
e 38 77
e 38 85
e 38 102
e 38 128
e 38 129
e 38 158
e 38 161
e 38 177
e 38 184
e 38 190
e 38 212
e 38 214
e 38 215
e 39 58
e 39 81
e 39 83
e 39 92
e 39 102
e 39 119
e 39 134
e 39 142
e 39 147
e 39 155
e 39 162
e 39 165
e 39 166
e 39 174
e 39 178
e 39 190
e 39 201
e 39 206
e 39 211
e 40 41
e 40 61
e 40 80
e 40 105
e 40 109
e 40 115
e 40 122
e 40 123
e 40 125
e 40 148
e 40 154
e 40 157
e 40 165
e 40 168
e 40 169
e 40 177
e 40 181
e 40 182
e 40 207
e 41 50
e 41 61
e 41 69
e 41 77
e 41 105
e 41 109
e 41 115
e 41 122
e 41 123
e 41 125
e 41 129
e 41 157
e 41 161
e 41 184
e 41 190
e 41 215
e 42 47
e 42 67
e 42 68
e 42 70
e 42 79
e 42 94
e 42 108
e 42 112
e 42 126
e 42 134
e 42 139
e 42 149
e 42 186
e 42 188
e 42 189
e 42 207
e 42 215
e 43 48
e 43 51
e 43 54
e 43 77
e 43 80
e 43 89
e 43 93
e 43 106
e 43 117
e 43 118
e 43 123
e 43 127
e 43 131
e 43 139
e 43 145
e 43 146
e 43 151
e 43 183
e 43 198
e 43 208
e 43 216
e 44 50
e 44 52
e 44 54
e 44 55
e 44 62
e 44 75
e 44 86
e 44 92
e 44 98
e 44 105
e 44 132
e 44 136
e 44 149
e 44 167
e 44 173
e 44 176
e 44 180
e 44 182
e 44 191
e 44 198
e 44 205
e 45 94
e 45 95
e 45 104
e 45 115
e 45 129
e 45 137
e 45 148
e 45 152
e 45 156
e 45 187
e 45 193
e 45 196
e 45 202
e 45 205
e 45 206
e 45 208
e 45 216
e 46 48
e 46 53
e 46 56
e 46 58
e 46 89
e 46 90
e 46 97
e 46 103
e 46 104
e 46 107
e 46 130
e 46 144
e 46 153
e 46 179
e 46 184
e 46 213
e 46 214
e 47 60
e 47 64
e 47 67
e 47 70
e 47 78
e 47 93
e 47 94
e 47 100
e 47 108
e 47 139
e 47 150
e 47 164
e 47 186
e 47 188
e 48 53
e 48 58
e 48 93
e 48 104
e 48 117
e 48 118
e 48 123
e 48 130
e 48 131
e 48 151
e 48 179
e 48 183
e 48 184
e 48 198
e 48 213
e 48 216
e 49 51
e 49 53
e 49 59
e 49 62
e 49 70
e 49 74
e 49 78
e 49 85
e 49 91
e 49 102
e 49 112
e 49 128
e 49 132
e 49 140
e 49 157
e 49 158
e 49 163
e 49 177
e 49 197
e 49 203
e 49 211
e 49 212
e 49 214
e 50 52
e 50 69
e 50 75
e 50 77
e 50 92
e 50 98
e 50 129
e 50 132
e 50 161
e 50 167
e 50 176
e 50 182
e 50 184
e 50 190
e 50 198
e 50 205
e 50 215
e 51 53
e 51 54
e 51 74
e 51 77
e 51 78
e 51 80
e 51 89
e 51 91
e 51 106
e 51 112
e 51 127
e 51 132
e 51 139
e 51 140
e 51 145
e 51 146
e 51 157
e 51 163
e 51 197
e 51 203
e 51 208
e 51 211
e 52 75
e 52 82
e 52 92
e 52 98
e 52 113
e 52 126
e 52 132
e 52 141
e 52 143
e 52 160
e 52 167
e 52 176
e 52 182
e 52 192
e 52 193
e 52 195
e 52 198
e 52 204
e 52 205
e 53 58
e 53 74
e 53 78
e 53 91
e 53 104
e 53 112
e 53 130
e 53 132
e 53 140
e 53 157
e 53 163
e 53 179
e 53 184
e 53 197
e 53 203
e 53 211
e 53 213
e 54 55
e 54 62
e 54 77
e 54 80
e 54 86
e 54 89
e 54 105
e 54 106
e 54 127
e 54 136
e 54 139
e 54 145
e 54 146
e 54 149
e 54 173
e 54 180
e 54 191
e 54 208
e 55 62
e 55 74
e 55 81
e 55 82
e 55 86
e 55 87
e 55 88
e 55 97
e 55 105
e 55 108
e 55 131
e 55 136
e 55 149
e 55 173
e 55 180
e 55 181
e 55 191
e 56 69
e 56 89
e 56 90
e 56 91
e 56 97
e 56 103
e 56 107
e 56 111
e 56 113
e 56 133
e 56 138
e 56 144
e 56 153
e 56 154
e 56 173
e 56 209
e 56 214
e 57 66
e 57 68
e 57 71
e 57 75
e 57 85
e 57 86
e 57 88
e 57 99
e 57 101
e 57 120
e 57 124
e 57 127
e 57 133
e 57 137
e 57 159
e 57 164
e 57 168
e 57 199
e 57 201
e 57 204
e 57 213
e 58 81
e 58 92
e 58 102
e 58 104
e 58 130
e 58 134
e 58 147
e 58 162
e 58 166
e 58 178
e 58 179
e 58 184
e 58 201
e 58 206
e 58 213
e 59 62
e 59 63
e 59 70
e 59 83
e 59 85
e 59 102
e 59 106
e 59 110
e 59 116
e 59 122
e 59 128
e 59 150
e 59 158
e 59 159
e 59 167
e 59 171
e 59 177
e 59 196
e 59 200
e 59 212
e 59 214
e 60 64
e 60 71
e 60 78
e 60 93
e 60 96
e 60 98
e 60 100
e 60 119
e 60 150
e 60 164
e 60 189
e 60 210
e 60 212
e 60 217
e 61 64
e 61 65
e 61 76
e 61 101
e 61 105
e 61 109
e 61 115
e 61 122
e 61 123
e 61 125
e 61 157
e 61 179
e 62 70
e 62 85
e 62 86
e 62 102
e 62 105
e 62 128
e 62 136
e 62 149
e 62 158
e 62 173
e 62 177
e 62 180
e 62 191
e 62 212
e 62 214
e 63 83
e 63 106
e 63 107
e 63 110
e 63 116
e 63 122
e 63 136
e 63 150
e 63 159
e 63 161
e 63 166
e 63 167
e 63 171
e 63 172
e 63 183
e 63 194
e 63 195
e 63 196
e 63 200
e 64 65
e 64 76
e 64 78
e 64 93
e 64 100
e 64 101
e 64 150
e 64 164
e 64 179
e 65 73
e 65 76
e 65 101
e 65 110
e 65 121
e 65 140
e 65 143
e 65 151
e 65 162
e 65 170
e 65 179
e 65 186
e 65 217
e 66 68
e 66 75
e 66 85
e 66 88
e 66 117
e 66 120
e 66 127
e 66 133
e 66 135
e 66 153
e 66 160
e 66 164
e 66 185
e 66 187
e 66 197
e 66 200
e 66 210
e 66 213
e 67 70
e 67 94
e 67 108
e 67 118
e 67 120
e 67 139
e 67 144
e 67 171
e 67 178
e 67 186
e 67 188
e 67 191
e 67 192
e 67 203
e 68 75
e 68 79
e 68 85
e 68 88
e 68 112
e 68 120
e 68 126
e 68 127
e 68 133
e 68 134
e 68 149
e 68 164
e 68 189
e 68 207
e 68 213
e 68 215
e 69 77
e 69 91
e 69 111
e 69 113
e 69 129
e 69 133
e 69 138
e 69 154
e 69 161
e 69 173
e 69 184
e 69 190
e 69 209
e 69 215
e 70 85
e 70 94
e 70 102
e 70 108
e 70 128
e 70 139
e 70 158
e 70 177
e 70 186
e 70 188
e 70 212
e 70 214
e 71 86
e 71 96
e 71 98
e 71 99
e 71 101
e 71 119
e 71 124
e 71 137
e 71 159
e 71 168
e 71 189
e 71 199
e 71 201
e 71 204
e 71 210
e 71 212
e 71 217
e 72 76
e 72 84
e 72 87
e 72 90
e 72 116
e 72 128
e 72 138
e 72 142
e 72 156
e 72 163
e 72 176
e 72 180
e 72 194
e 72 199
e 72 202
e 73 84
e 73 95
e 73 109
e 73 110
e 73 121
e 73 140
e 73 143
e 73 146
e 73 151
e 73 162
e 73 170
e 73 174
e 73 175
e 73 186
e 73 217
e 74 78
e 74 81
e 74 82
e 74 87
e 74 88
e 74 91
e 74 97
e 74 108
e 74 112
e 74 131
e 74 132
e 74 140
e 74 157
e 74 163
e 74 181
e 74 197
e 74 203
e 74 211
e 75 85
e 75 88
e 75 92
e 75 98
e 75 120
e 75 127
e 75 132
e 75 133
e 75 164
e 75 167
e 75 176
e 75 182
e 75 198
e 75 205
e 75 213
e 76 84
e 76 90
e 76 101
e 76 116
e 76 163
e 76 179
e 76 180
e 76 202
e 77 80
e 77 89
e 77 106
e 77 127
e 77 129
e 77 139
e 77 145
e 77 146
e 77 161
e 77 184
e 77 190
e 77 208
e 77 215
e 78 91
e 78 93
e 78 100
e 78 112
e 78 132
e 78 140
e 78 150
e 78 157
e 78 163
e 78 164
e 78 197
e 78 203
e 78 211
e 79 100
e 79 111
e 79 112
e 79 114
e 79 121
e 79 124
e 79 125
e 79 126
e 79 134
e 79 145
e 79 149
e 79 172
e 79 185
e 79 189
e 79 207
e 79 215
e 80 89
e 80 106
e 80 127
e 80 139
e 80 145
e 80 146
e 80 148
e 80 154
e 80 165
e 80 168
e 80 169
e 80 177
e 80 181
e 80 182
e 80 207
e 80 208
e 81 82
e 81 87
e 81 88
e 81 92
e 81 97
e 81 102
e 81 108
e 81 131
e 81 134
e 81 147
e 81 162
e 81 166
e 81 178
e 81 181
e 81 201
e 81 206
e 82 87
e 82 88
e 82 97
e 82 108
e 82 113
e 82 126
e 82 131
e 82 141
e 82 143
e 82 160
e 82 181
e 82 192
e 82 193
e 82 195
e 82 204
e 83 106
e 83 110
e 83 116
e 83 119
e 83 122
e 83 142
e 83 150
e 83 155
e 83 159
e 83 165
e 83 167
e 83 171
e 83 174
e 83 190
e 83 196
e 83 200
e 83 211
e 84 90
e 84 95
e 84 109
e 84 116
e 84 146
e 84 163
e 84 174
e 84 175
e 84 180
e 84 202
e 85 88
e 85 102
e 85 120
e 85 127
e 85 128
e 85 133
e 85 158
e 85 164
e 85 177
e 85 212
e 85 213
e 85 214
e 86 99
e 86 101
e 86 105
e 86 124
e 86 136
e 86 137
e 86 149
e 86 159
e 86 168
e 86 173
e 86 180
e 86 191
e 86 199
e 86 201
e 86 204
e 87 88
e 87 97
e 87 108
e 87 128
e 87 131
e 87 138
e 87 142
e 87 156
e 87 176
e 87 181
e 87 194
e 87 199
e 88 97
e 88 108
e 88 120
e 88 127
e 88 131
e 88 133
e 88 164
e 88 181
e 88 213
e 89 90
e 89 97
e 89 103
e 89 106
e 89 107
e 89 127
e 89 139
e 89 144
e 89 145
e 89 146
e 89 153
e 89 208
e 89 214
e 90 97
e 90 103
e 90 107
e 90 116
e 90 144
e 90 153
e 90 163
e 90 180
e 90 202
e 90 214
e 91 111
e 91 112
e 91 113
e 91 132
e 91 133
e 91 138
e 91 140
e 91 154
e 91 157
e 91 163
e 91 173
e 91 197
e 91 203
e 91 209
e 91 211
e 92 98
e 92 102
e 92 132
e 92 134
e 92 147
e 92 162
e 92 166
e 92 167
e 92 176
e 92 178
e 92 182
e 92 198
e 92 201
e 92 205
e 92 206
e 93 100
e 93 117
e 93 118
e 93 123
e 93 131
e 93 150
e 93 151
e 93 164
e 93 183
e 93 198
e 93 216
e 94 95
e 94 108
e 94 129
e 94 139
e 94 148
e 94 156
e 94 186
e 94 188
e 94 193
e 94 196
e 94 206
e 94 216
e 95 109
e 95 129
e 95 146
e 95 148
e 95 156
e 95 174
e 95 175
e 95 193
e 95 196
e 95 206
e 95 216
e 96 98
e 96 103
e 96 114
e 96 119
e 96 141
e 96 147
e 96 152
e 96 169
e 96 175
e 96 188
e 96 189
e 96 210
e 96 212
e 96 217
e 97 103
e 97 107
e 97 108
e 97 131
e 97 144
e 97 153
e 97 181
e 97 214
e 98 119
e 98 132
e 98 167
e 98 176
e 98 182
e 98 189
e 98 198
e 98 205
e 98 210
e 98 212
e 98 217
e 99 101
e 99 124
e 99 130
e 99 135
e 99 137
e 99 155
e 99 158
e 99 159
e 99 168
e 99 170
e 99 199
e 99 201
e 99 204
e 99 209
e 100 111
e 100 114
e 100 121
e 100 124
e 100 125
e 100 145
e 100 150
e 100 164
e 100 172
e 100 185
e 101 124
e 101 137
e 101 159
e 101 168
e 101 179
e 101 199
e 101 201
e 101 204
e 102 128
e 102 134
e 102 147
e 102 158
e 102 162
e 102 166
e 102 177
e 102 178
e 102 201
e 102 206
e 102 212
e 102 214
e 103 107
e 103 114
e 103 141
e 103 144
e 103 147
e 103 152
e 103 153
e 103 169
e 103 175
e 103 188
e 103 214
e 104 115
e 104 130
e 104 137
e 104 152
e 104 179
e 104 184
e 104 187
e 104 202
e 104 205
e 104 208
e 104 213
e 105 109
e 105 115
e 105 122
e 105 123
e 105 125
e 105 136
e 105 149
e 105 157
e 105 173
e 105 180
e 105 191
e 106 110
e 106 116
e 106 122
e 106 127
e 106 139
e 106 145
e 106 146
e 106 150
e 106 159
e 106 167
e 106 171
e 106 196
e 106 200
e 106 208
e 107 136
e 107 144
e 107 153
e 107 161
e 107 166
e 107 172
e 107 183
e 107 194
e 107 195
e 107 214
e 108 131
e 108 139
e 108 181
e 108 186
e 108 188
e 109 115
e 109 122
e 109 123
e 109 125
e 109 146
e 109 157
e 109 174
e 109 175
e 110 116
e 110 121
e 110 122
e 110 140
e 110 143
e 110 150
e 110 151
e 110 159
e 110 162
e 110 167
e 110 170
e 110 171
e 110 186
e 110 196
e 110 200
e 110 217
e 111 113
e 111 114
e 111 121
e 111 124
e 111 125
e 111 133
e 111 138
e 111 145
e 111 154
e 111 172
e 111 173
e 111 185
e 111 209
e 112 126
e 112 132
e 112 134
e 112 140
e 112 149
e 112 157
e 112 163
e 112 189
e 112 197
e 112 203
e 112 207
e 112 211
e 112 215
e 113 126
e 113 133
e 113 138
e 113 141
e 113 143
e 113 154
e 113 160
e 113 173
e 113 192
e 113 193
e 113 195
e 113 204
e 113 209
e 114 121
e 114 124
e 114 125
e 114 141
e 114 145
e 114 147
e 114 152
e 114 169
e 114 172
e 114 175
e 114 185
e 114 188
e 115 122
e 115 123
e 115 125
e 115 137
e 115 152
e 115 157
e 115 187
e 115 202
e 115 205
e 115 208
e 116 122
e 116 150
e 116 159
e 116 163
e 116 167
e 116 171
e 116 180
e 116 196
e 116 200
e 116 202
e 117 118
e 117 123
e 117 131
e 117 135
e 117 151
e 117 153
e 117 160
e 117 183
e 117 185
e 117 187
e 117 197
e 117 198
e 117 200
e 117 210
e 117 216
e 118 120
e 118 123
e 118 131
e 118 144
e 118 151
e 118 171
e 118 178
e 118 183
e 118 191
e 118 192
e 118 198
e 118 203
e 118 216
e 119 142
e 119 155
e 119 165
e 119 174
e 119 189
e 119 190
e 119 210
e 119 211
e 119 212
e 119 217
e 120 127
e 120 133
e 120 144
e 120 164
e 120 171
e 120 178
e 120 191
e 120 192
e 120 203
e 120 213
e 121 124
e 121 125
e 121 140
e 121 143
e 121 145
e 121 151
e 121 162
e 121 170
e 121 172
e 121 185
e 121 186
e 121 217
e 122 123
e 122 125
e 122 150
e 122 157
e 122 159
e 122 167
e 122 171
e 122 196
e 122 200
e 123 125
e 123 131
e 123 151
e 123 157
e 123 183
e 123 198
e 123 216
e 124 125
e 124 137
e 124 145
e 124 159
e 124 168
e 124 172
e 124 185
e 124 199
e 124 201
e 124 204
e 125 145
e 125 157
e 125 172
e 125 185
e 126 134
e 126 141
e 126 143
e 126 149
e 126 160
e 126 189
e 126 192
e 126 193
e 126 195
e 126 204
e 126 207
e 126 215
e 127 133
e 127 139
e 127 145
e 127 146
e 127 164
e 127 208
e 127 213
e 128 138
e 128 142
e 128 156
e 128 158
e 128 176
e 128 177
e 128 194
e 128 199
e 128 212
e 128 214
e 129 148
e 129 156
e 129 161
e 129 184
e 129 190
e 129 193
e 129 196
e 129 206
e 129 215
e 129 216
e 130 135
e 130 155
e 130 158
e 130 170
e 130 179
e 130 184
e 130 209
e 130 213
e 131 151
e 131 181
e 131 183
e 131 198
e 131 216
e 132 140
e 132 157
e 132 163
e 132 167
e 132 176
e 132 182
e 132 197
e 132 198
e 132 203
e 132 205
e 132 211
e 133 138
e 133 154
e 133 164
e 133 173
e 133 209
e 133 213
e 134 147
e 134 149
e 134 162
e 134 166
e 134 178
e 134 189
e 134 201
e 134 206
e 134 207
e 134 215
e 135 153
e 135 155
e 135 158
e 135 160
e 135 170
e 135 185
e 135 187
e 135 197
e 135 200
e 135 209
e 135 210
e 136 149
e 136 161
e 136 166
e 136 172
e 136 173
e 136 180
e 136 183
e 136 191
e 136 194
e 136 195
e 137 152
e 137 159
e 137 168
e 137 187
e 137 199
e 137 201
e 137 202
e 137 204
e 137 205
e 137 208
e 138 142
e 138 154
e 138 156
e 138 173
e 138 176
e 138 194
e 138 199
e 138 209
e 139 145
e 139 146
e 139 186
e 139 188
e 139 208
e 140 143
e 140 151
e 140 157
e 140 162
e 140 163
e 140 170
e 140 186
e 140 197
e 140 203
e 140 211
e 140 217
e 141 143
e 141 147
e 141 152
e 141 160
e 141 169
e 141 175
e 141 188
e 141 192
e 141 193
e 141 195
e 141 204
e 142 155
e 142 156
e 142 165
e 142 174
e 142 176
e 142 190
e 142 194
e 142 199
e 142 211
e 143 151
e 143 160
e 143 162
e 143 170
e 143 186
e 143 192
e 143 193
e 143 195
e 143 204
e 143 217
e 144 153
e 144 171
e 144 178
e 144 191
e 144 192
e 144 203
e 144 214
e 145 146
e 145 172
e 145 185
e 145 208
e 146 174
e 146 175
e 146 208
e 147 152
e 147 162
e 147 166
e 147 169
e 147 175
e 147 178
e 147 188
e 147 201
e 147 206
e 148 154
e 148 156
e 148 165
e 148 168
e 148 169
e 148 177
e 148 181
e 148 182
e 148 193
e 148 196
e 148 206
e 148 207
e 148 216
e 149 173
e 149 180
e 149 189
e 149 191
e 149 207
e 149 215
e 150 159
e 150 164
e 150 167
e 150 171
e 150 196
e 150 200
e 151 162
e 151 170
e 151 183
e 151 186
e 151 198
e 151 216
e 151 217
e 152 169
e 152 175
e 152 187
e 152 188
e 152 202
e 152 205
e 152 208
e 153 160
e 153 185
e 153 187
e 153 197
e 153 200
e 153 210
e 153 214
e 154 165
e 154 168
e 154 169
e 154 173
e 154 177
e 154 181
e 154 182
e 154 207
e 154 209
e 155 158
e 155 165
e 155 170
e 155 174
e 155 190
e 155 209
e 155 211
e 156 176
e 156 193
e 156 194
e 156 196
e 156 199
e 156 206
e 156 216
e 157 163
e 157 197
e 157 203
e 157 211
e 158 170
e 158 177
e 158 209
e 158 212
e 158 214
e 159 167
e 159 168
e 159 171
e 159 196
e 159 199
e 159 200
e 159 201
e 159 204
e 160 185
e 160 187
e 160 192
e 160 193
e 160 195
e 160 197
e 160 200
e 160 204
e 160 210
e 161 166
e 161 172
e 161 183
e 161 184
e 161 190
e 161 194
e 161 195
e 161 215
e 162 166
e 162 170
e 162 178
e 162 186
e 162 201
e 162 206
e 162 217
e 163 180
e 163 197
e 163 202
e 163 203
e 163 211
e 164 213
e 165 168
e 165 169
e 165 174
e 165 177
e 165 181
e 165 182
e 165 190
e 165 207
e 165 211
e 166 172
e 166 178
e 166 183
e 166 194
e 166 195
e 166 201
e 166 206
e 167 171
e 167 176
e 167 182
e 167 196
e 167 198
e 167 200
e 167 205
e 168 169
e 168 177
e 168 181
e 168 182
e 168 199
e 168 201
e 168 204
e 168 207
e 169 175
e 169 177
e 169 181
e 169 182
e 169 188
e 169 207
e 170 186
e 170 209
e 170 217
e 171 178
e 171 191
e 171 192
e 171 196
e 171 200
e 171 203
e 172 183
e 172 185
e 172 194
e 172 195
e 173 180
e 173 191
e 173 209
e 174 175
e 174 190
e 174 211
e 175 188
e 176 182
e 176 194
e 176 198
e 176 199
e 176 205
e 177 181
e 177 182
e 177 207
e 177 212
e 177 214
e 178 191
e 178 192
e 178 201
e 178 203
e 178 206
e 179 184
e 179 213
e 180 191
e 180 202
e 181 182
e 181 207
e 182 198
e 182 205
e 182 207
e 183 194
e 183 195
e 183 198
e 183 216
e 184 190
e 184 213
e 184 215
e 185 187
e 185 197
e 185 200
e 185 210
e 186 188
e 186 217
e 187 197
e 187 200
e 187 202
e 187 205
e 187 208
e 187 210
e 189 207
e 189 210
e 189 212
e 189 215
e 189 217
e 190 211
e 190 215
e 191 192
e 191 203
e 192 193
e 192 195
e 192 203
e 192 204
e 193 195
e 193 196
e 193 204
e 193 206
e 193 216
e 194 195
e 194 199
e 195 204
e 196 200
e 196 206
e 196 216
e 197 200
e 197 203
e 197 210
e 197 211
e 198 205
e 198 216
e 199 201
e 199 204
e 200 210
e 201 204
e 201 206
e 202 205
e 202 208
e 203 211
e 205 208
e 206 216
e 207 215
e 210 212
e 210 217
e 212 214
e 212 217
